SN2 Cl- + CH3Cl - central barrier guess 
   1.0000000000000000     
    12.0000000000000000    0.0000000000000000    0.0000000000000000
     0.0000000000000000   12.0000000000000000    0.0000000000000000
     0.0000000000000000    0.0000000000000000   12.0000000000000000
  C               H               Cl            
     1     3     2
Direct
     0.5049700701515295    0.5001381361320584    0.5016690274660762
     0.5971995363791717    0.5000130857152505    0.5007407136317229
     0.4559061048968236    0.5785187842452834    0.5010918862809840
     0.4562095965856309    0.4215671565233783    0.5008234406589632
     0.4881399334384562    0.4995573355033143    0.6779330669859489
     0.4872311909252547    0.5002662277856972    0.3214500502156727

             NaN             NaN             NaN
             NaN             NaN             NaN
             NaN             NaN             NaN
             NaN             NaN             NaN
             NaN             NaN             NaN
             NaN             NaN             NaN
