H  Si
 1.0000000000000000
     7.6804524358920432    0.0000000000000000    0.0000000000000000
     0.0000000000000000    7.6804524358920432    0.0000000000000000
     0.0000000000000000    0.0000000000000000   22.0731749999999991
 H   Si 
   1  16
Direct
  0.2565750418942011  0.7499618337937515  0.6312462539902984
  0.7493178658981801  0.2506260840472090  0.3961181797567937
  0.2540535747600804  0.7498289543103933  0.4195785450253022
  0.7554275432924420  0.7493161969387381  0.4010352336799045
  0.9817687684173311  0.2500678602555409  0.4678333790814174
  0.5139812570638694  0.2500597462091692  0.4673201856144942
  0.9857440146685398  0.7499798172584271  0.4682764237582855
  0.5240845646005086  0.7499749091685710  0.4676802417613398
  0.2478198610261089  0.2501569788596458  0.4222329218618929
  0.5069543899248345  0.0005936423302505  0.5292356717001852
  0.0046297539654811  0.5002818930966945  0.5301941549767617
  0.5069303243683274  0.4994328317633815  0.5292674067534344
  0.2565791404670131  0.9073022512498552  0.5813714850637263
  0.7552453448447176  0.0926205907965771  0.5833243292422066
  0.2565709433213891  0.5926214163376478  0.5814525339024902
  0.7552340123138384  0.4073869566061590  0.5833342680665875
  0.0046259967250303  0.9997584356327416  0.5301610705868264
Cartesian
  0.0000000000000000  0.0000000000000000  0.0000000000000000
  0.0000000000000000  0.0000000000000000  0.0000000000000000
  0.0000000000000000  0.0000000000000000  0.0000000000000000
  0.0000000000000000  0.0000000000000000  0.0000000000000000
  0.0000000000000000  0.0000000000000000  0.0000000000000000
  0.0000000000000000  0.0000000000000000  0.0000000000000000
  0.0000000000000000  0.0000000000000000  0.0000000000000000
  0.0000000000000000  0.0000000000000000  0.0000000000000000
  0.0000000000000000  0.0000000000000000  0.0000000000000000
  0.0000000000000000  0.0000000000000000  0.0000000000000000
  0.0000000000000000  0.0000000000000000  0.0000000000000000
  0.0000000000000000  0.0000000000000000  0.0000000000000000
  0.0000000000000000  0.0000000000000000  0.0000000000000000
  0.0000000000000000  0.0000000000000000  0.0000000000000000
  0.0000000000000000  0.0000000000000000  0.0000000000000000
  0.0000000000000000  0.0000000000000000  0.0000000000000000
  0.0000000000000000  0.0000000000000000  0.0000000000000000
