SYSTEM = H3 exchange in triclinic cell (VASP-EF)
ENCUT  = 400
EDIFF  = 1E-7
ISMEAR = 0
SIGMA  = 0.02
ISPIN  = 2
LWAVE  = .FALSE.
LCHARG = .FALSE.
ISYM   = 0
IBRION = 3
POTIM  = 0
EF_TS  = .TRUE.
EDIFFG = -0.03
NSW    = 300
EF_MAXSTEP  = 0.10
EF_TRUST    = ADAPTIVE
EF_MODE     = GUESS
EF_GUESS_K  = -0.5
EF_UPDATE   = BOFILL
EF_BONDS    = .TRUE.
EF_ROTFIX   = .TRUE.
EF_CALCFC   = .TRUE.
EF_FCDELTA  = 0.05
EF_FCHESS_N = 40
EF_FDREFINE = .TRUE.
EF_FDREF_K  = 5
EF_FDDELTA  = 0.04
EF_PRINT    = 2
NBANDS  = 8
ALGO    = Normal
